
Gurobi 9.5.1 (linux64) logging started Tue 16 Aug 2022 06:06:55 PM MST

Set parameter LogFile to value "/home/local/ASUAD/kmajd1/NNRepLayer_v2/demos/walking_example/global_constraint_upper_10/repair_net/logs/opt_log_multi_49.log"
Gurobi Optimizer version 9.5.1 build v9.5.1rc2 (linux64)
Thread count: 48 physical cores, 96 logical processors, using up to 45 threads
Optimize a model with 16863 rows, 10742 columns and 151935 nonzeros
Model fingerprint: 0xe56538d0
Model has 149 quadratic objective terms
Variable types: 5974 continuous, 4768 integer (4768 binary)
Coefficient statistics:
  Matrix range     [1e-03, 3e+02]
  Objective range  [6e-03, 1e+00]
  QObjective range [1e-02, 1e-02]
  Bounds range     [1e+00, 2e+03]
  RHS range        [4e-05, 3e+02]

Concurrent MIP optimizer: 3 concurrent instances (15 threads per instance)

Presolve removed 426 rows and 64 columns
Presolve time: 0.25s
Presolved: 16437 rows, 10678 columns, 151381 nonzeros
Presolved model has 149 quadratic objective terms
Variable types: 5910 continuous, 4768 integer (4768 binary)
Root relaxation presolve removed 4768 rows and 4768 columns
Root relaxation presolved: 11669 rows, 5910 columns, 137077 nonzeros
Root relaxation presolved model has 149 quadratic objective terms


Root relaxation: objective 2.891334e+01, 5467 iterations, 0.20 seconds (0.28 work units)

    Nodes    |    Current Node    |     Objective Bounds      |     Work
 Expl Unexpl |  Obj  Depth IntInf | Incumbent    BestBd   Gap | It/Node Time

     0     0      -    -    -      181.78159   28.91334  84.1%     -    1s
     0     0      -    -    -      180.36270   28.91334  84.0%     -    4s
     0     2      -    -    -      177.70853   28.91334  83.7%     -    7s
    94   115      -    -    -      177.70853   28.91334  83.7%     -   10s
   318   345      -    -    -      177.70853   28.91334  83.7%     -   16s
   405   421      -    -    -       91.43999   28.91334  68.4%     -   29s
   420   467      -    -    -       91.43999   28.91334  68.4%     -   30s
   466   482      -    -    -       34.73049   28.91334  16.7%     -   44s
   571   682      -    -    -       33.09956   28.91334  12.6%     -   45s
  1527  1543      -    -    -       33.09956   28.91334  12.6%     -   58s
  2110  2269      -    -    -       32.87405   28.91334  12.0%     -   61s
  2478  2664      -    -    -       32.87405   28.91334  12.0%     -   65s
  3287  3478      -    -    -       32.87405   28.91334  12.0%     -   72s
  3689  3737      -    -    -       32.87405   28.91334  12.0%     -   75s
  4032  4334      -    -    -       32.87405   28.91334  12.0%     -   80s
  5077  5495      -    -    -       32.87405   28.91334  12.0%     -   87s
  5502  5886      -    -    -       32.87405   28.91334  12.0%     -   90s
  6426  7000      -    -    -       32.87405   28.91334  12.0%     -   96s
  7673  8381      -    -    -       32.87405   28.91334  12.0%     -  102s
  8388  8913      -    -    -       32.87405   28.91334  12.0%     -  105s
  9413  9944      -    -    -       32.87405   28.91334  12.0%     -  112s
  9952  9945      -    -    -       32.83608   28.91334  11.9%     -  127s

Resetting heuristic parameters to focus on improving solution
(using Heuristics=0.5 and RINS=10)...

  9953  9949      -    -    -       32.83608   28.91334  11.9%     -  141s
 10497 10340      -    -    -       32.83608   28.91334  11.9%     -  145s
 11527 11070      -    -    -       32.83608   28.91334  11.9%     -  150s
 12903 12033      -    -    -       32.83608   28.91334  11.9%     -  155s
 13023 12008      -    -    -       32.83608   28.91334  11.9%     -  161s
 13154 12175      -    -    -       32.83608   28.91334  11.9%     -  166s
 13445 12422      -    -    -       32.83608   28.91334  11.9%     -  175s
 13706 12597      -    -    -       32.83608   28.91334  11.9%     -  180s
 13854 12687      -    -    -       32.83608   28.91334  11.9%     -  193s
 13994 12801      -    -    -       32.83608   28.91334  11.9%     -  196s
 14538 13125      -    -    -       32.83608   28.91334  11.9%     -  202s
 14660 13335      -    -    -       32.83608   28.91334  11.9%     -  205s
 15068 13713      -    -    -       32.83608   28.91334  11.9%     -  212s
 15424 13784      -    -    -       32.83608   28.91334  11.9%     -  220s
 15872 14153      -    -    -       32.83608   28.91334  11.9%     -  228s
 16164 14507      -    -    -       32.83608   28.91334  11.9%     -  234s
 16616 14688      -    -    -       32.83608   28.91334  11.9%     -  237s
 16953 14774      -    -    -       32.83608   28.91334  11.9%     -  240s
 17162 15078      -    -    -       32.83608   28.91334  11.9%     -  249s
 17547 15367      -    -    -       32.83608   28.91334  11.9%     -  252s
 17965 15697      -    -    -       32.83608   28.91334  11.9%     -  257s
 18434 15873      -    -    -       32.83608   28.91334  11.9%     -  260s
 18778 16136      -    -    -       32.83608   28.91334  11.9%     -  265s
 19170 16567      -    -    -       32.83608   28.91334  11.9%     -  271s
 19760 16883      -    -    -       32.83608   28.91334  11.9%     -  277s
 20302 17412      -    -    -       32.83608   28.91334  11.9%     -  285s
 21014 17583      -    -    -       32.83608   28.91334  11.9%     -  292s
 21436 18436      -    -    -       32.83608   28.91334  11.9%     -  298s
 22434 18929      -    -    -       32.83608   28.91334  11.9%     -  303s
 23288 19515      -    -    -       32.83608   28.91334  11.9%     -  309s
 24188 19999      -    -    -       32.83608   28.91334  11.9%     -  315s
 24992 20361      -    -    -       32.83608   28.91334  11.9%     -  320s
 25668 20781      -    -    -       32.83608   28.91334  11.9%     -  346s
 26332 21713      -    -    -       32.58972   28.91334  11.3%     -  354s
 27485 22639      -    -    -       32.58972   28.91334  11.3%     -  364s
 28813 23128      -    -    -       32.53183   28.91334  11.1%     -  370s
 29801 23731      -    -    -       32.53183   28.91334  11.1%     -  381s
 30785 24557      -    -    -       32.53183   28.91334  11.1%     -  391s
 31949 25834      -    -    -       32.53183   28.91334  11.1%     -  403s
 33626 26748      -    -    -       32.53183   28.91334  11.1%     -  411s
 35222 27241      -    -    -       32.53183   28.91334  11.1%     -  419s
 36313 27938      -    -    -       32.53183   28.91334  11.1%     -  427s
 37412 29183      -    -    -       32.53183   28.91334  11.1%     -  436s
 39093 30119      -    -    -       32.53183   28.91334  11.1%     -  446s
 40658 31367      -    -    -       32.53183   28.91334  11.1%     -  457s
 42236 32401      -    -    -       32.53183   28.91334  11.1%     -  469s
 43353 33809      -    -    -       32.53182   28.91334  11.1%     -  481s
 44891 35384      -    -    -       32.53182   28.91334  11.1%     -  495s
 46566 35924      -    -    -       32.53182   28.91334  11.1%     -  500s

Instance 0 was solved

Explored 47132 nodes (15809372 simplex iterations) in 500.22 seconds (996.08 work units)
Thread count was 15 (of 96 available processors)

Solution count 10: 32.4964 32.5145 32.5308 ... 32.5318 

Time limit reached
Best objective 3.249643000972e+01, best bound 2.891334278932e+01, gap 11.0261%
